c t wmc
c file mc2022_track2_051.cnf
p cnf 130 393
1 0
11 12 0
21 22 23 0
31 32 33 34 0
41 42 43 44 45 0
51 52 53 54 55 56 0
61 62 63 64 65 66 67 0
71 72 73 74 75 76 77 78 0
81 82 83 84 85 86 87 88 89 0
91 92 93 94 95 96 97 98 99 100 0
101 102 103 104 105 106 107 108 109 110 0
111 112 113 114 115 116 117 118 119 120 0
121 122 123 124 125 126 127 128 129 130 0
-1 -121 0
-2 -122 0
-3 -123 0
-4 -124 0
-5 -125 0
-6 -126 0
-7 -127 0
-8 -128 0
-9 -129 0
-10 -130 0
-51 -101 0
-52 -102 0
-53 -103 0
-54 -104 0
-55 -105 0
-56 -106 0
-57 -107 0
-58 -108 0
-59 -109 0
-60 -110 0
-11 -51 0
-12 -52 0
-13 -53 0
-14 -54 0
-15 -55 0
-16 -56 0
-17 -57 0
-18 -58 0
-19 -59 0
-20 -60 0
-41 -91 0
-42 -92 0
-43 -93 0
-44 -94 0
-45 -95 0
-46 -96 0
-47 -97 0
-48 -98 0
-49 -99 0
-50 -100 0
-1 -81 0
-2 -82 0
-3 -83 0
-4 -84 0
-5 -85 0
-6 -86 0
-7 -87 0
-8 -88 0
-9 -89 0
-10 -90 0
-11 -91 0
-12 -92 0
-13 -93 0
-14 -94 0
-15 -95 0
-16 -96 0
-17 -97 0
-18 -98 0
-19 -99 0
-20 -100 0
-1 -111 0
-2 -112 0
-3 -113 0
-4 -114 0
-5 -115 0
-6 -116 0
-7 -117 0
-8 -118 0
-9 -119 0
-10 -120 0
-31 -111 0
-32 -112 0
-33 -113 0
-34 -114 0
-35 -115 0
-36 -116 0
-37 -117 0
-38 -118 0
-39 -119 0
-40 -120 0
-11 -61 0
-12 -62 0
-13 -63 0
-14 -64 0
-15 -65 0
-16 -66 0
-17 -67 0
-18 -68 0
-19 -69 0
-20 -70 0
-1 -71 0
-2 -72 0
-3 -73 0
-4 -74 0
-5 -75 0
-6 -76 0
-7 -77 0
-8 -78 0
-9 -79 0
-10 -80 0
-51 -71 0
-52 -72 0
-53 -73 0
-54 -74 0
-55 -75 0
-56 -76 0
-57 -77 0
-58 -78 0
-59 -79 0
-60 -80 0
-71 -91 0
-72 -92 0
-73 -93 0
-74 -94 0
-75 -95 0
-76 -96 0
-77 -97 0
-78 -98 0
-79 -99 0
-80 -100 0
-11 -101 0
-12 -102 0
-13 -103 0
-14 -104 0
-15 -105 0
-16 -106 0
-17 -107 0
-18 -108 0
-19 -109 0
-20 -110 0
-61 -81 0
-62 -82 0
-63 -83 0
-64 -84 0
-65 -85 0
-66 -86 0
-67 -87 0
-68 -88 0
-69 -89 0
-70 -90 0
-1 -31 0
-2 -32 0
-3 -33 0
-4 -34 0
-5 -35 0
-6 -36 0
-7 -37 0
-8 -38 0
-9 -39 0
-10 -40 0
-31 -121 0
-32 -122 0
-33 -123 0
-34 -124 0
-35 -125 0
-36 -126 0
-37 -127 0
-38 -128 0
-39 -129 0
-40 -130 0
-81 -101 0
-82 -102 0
-83 -103 0
-84 -104 0
-85 -105 0
-86 -106 0
-87 -107 0
-88 -108 0
-89 -109 0
-90 -110 0
-11 -71 0
-12 -72 0
-13 -73 0
-14 -74 0
-15 -75 0
-16 -76 0
-17 -77 0
-18 -78 0
-19 -79 0
-20 -80 0
-1 -101 0
-2 -102 0
-3 -103 0
-4 -104 0
-5 -105 0
-6 -106 0
-7 -107 0
-8 -108 0
-9 -109 0
-10 -110 0
-11 -21 0
-12 -22 0
-13 -23 0
-14 -24 0
-15 -25 0
-16 -26 0
-17 -27 0
-18 -28 0
-19 -29 0
-20 -30 0
-51 -81 0
-52 -82 0
-53 -83 0
-54 -84 0
-55 -85 0
-56 -86 0
-57 -87 0
-58 -88 0
-59 -89 0
-60 -90 0
-71 -101 0
-72 -102 0
-73 -103 0
-74 -104 0
-75 -105 0
-76 -106 0
-77 -107 0
-78 -108 0
-79 -109 0
-80 -110 0
-11 -111 0
-12 -112 0
-13 -113 0
-14 -114 0
-15 -115 0
-16 -116 0
-17 -117 0
-18 -118 0
-19 -119 0
-20 -120 0
-61 -71 0
-62 -72 0
-63 -73 0
-64 -74 0
-65 -75 0
-66 -76 0
-67 -77 0
-68 -78 0
-69 -79 0
-70 -80 0
-1 -61 0
-2 -62 0
-3 -63 0
-4 -64 0
-5 -65 0
-6 -66 0
-7 -67 0
-8 -68 0
-9 -69 0
-10 -70 0
-21 -121 0
-22 -122 0
-23 -123 0
-24 -124 0
-25 -125 0
-26 -126 0
-27 -127 0
-28 -128 0
-29 -129 0
-30 -130 0
-81 -91 0
-82 -92 0
-83 -93 0
-84 -94 0
-85 -95 0
-86 -96 0
-87 -97 0
-88 -98 0
-89 -99 0
-90 -100 0
-11 -81 0
-12 -82 0
-13 -83 0
-14 -84 0
-15 -85 0
-16 -86 0
-17 -87 0
-18 -88 0
-19 -89 0
-20 -90 0
-1 -21 0
-2 -22 0
-3 -23 0
-4 -24 0
-5 -25 0
-6 -26 0
-7 -27 0
-8 -28 0
-9 -29 0
-10 -30 0
-61 -101 0
-62 -102 0
-63 -103 0
-64 -104 0
-65 -105 0
-66 -106 0
-67 -107 0
-68 -108 0
-69 -109 0
-70 -110 0
-1 -91 0
-2 -92 0
-3 -93 0
-4 -94 0
-5 -95 0
-6 -96 0
-7 -97 0
-8 -98 0
-9 -99 0
-10 -100 0
-11 -31 0
-12 -32 0
-13 -33 0
-14 -34 0
-15 -35 0
-16 -36 0
-17 -37 0
-18 -38 0
-19 -39 0
-20 -40 0
-51 -91 0
-52 -92 0
-53 -93 0
-54 -94 0
-55 -95 0
-56 -96 0
-57 -97 0
-58 -98 0
-59 -99 0
-60 -100 0
-11 -121 0
-12 -122 0
-13 -123 0
-14 -124 0
-15 -125 0
-16 -126 0
-17 -127 0
-18 -128 0
-19 -129 0
-20 -130 0
-41 -101 0
-42 -102 0
-43 -103 0
-44 -104 0
-45 -105 0
-46 -106 0
-47 -107 0
-48 -108 0
-49 -109 0
-50 -110 0
-1 -51 0
-2 -52 0
-3 -53 0
-4 -54 0
-5 -55 0
-6 -56 0
-7 -57 0
-8 -58 0
-9 -59 0
-10 -60 0
-21 -111 0
-22 -112 0
-23 -113 0
-24 -114 0
-25 -115 0
-26 -116 0
-27 -117 0
-28 -118 0
-29 -119 0
-30 -120 0
-61 -91 0
-62 -92 0
-63 -93 0
-64 -94 0
-65 -95 0
-66 -96 0
-67 -97 0
-68 -98 0
-69 -99 0
-70 -100 0
c p weight 1 0.99234818 0
c p weight -1 0.00765182 0
c p weight 2 0.01249825 0
c p weight -2 0.98750175 0
c p weight 3 0.00683303 0
c p weight -3 0.99316697 0
c p weight 4 0.99402022 0
c p weight -4 0.00597978 0
c p weight 5 0.991698 0
c p weight -5 0.008302 0
c p weight 6 0.00685683 0
c p weight -6 0.99314317 0
c p weight 7 0.00734434 0
c p weight -7 0.99265566 0
c p weight 8 0.0187978 0
c p weight -8 0.9812022 0
c p weight 9 0.01019383 0
c p weight -9 0.98980617 0
c p weight 10 0.00755956 0
c p weight -10 0.99244044 0
c p weight 11 0.98987031 0
c p weight -11 0.01012969 0
c p weight 12 0.00149008 0
c p weight -12 0.99850992 0
c p weight 13 0.99929772 0
c p weight -13 0.00070228 0
c p weight 14 0.00083514 0
c p weight -14 0.99916486 0
c p weight 15 0.00544896 0
c p weight -15 0.99455104 0
c p weight 16 0.00575271 0
c p weight -16 0.99424729 0
c p weight 17 0.00710274 0
c p weight -17 0.99289726 0
c p weight 18 0.01102353 0
c p weight -18 0.98897647 0
c p weight 19 0.00857939 0
c p weight -19 0.99142061 0
c p weight 20 0.01327964 0
c p weight -20 0.98672036 0
c p weight 21 0.00218729 0
c p weight -21 0.99781271 0
c p weight 22 0.99812787 0
c p weight -22 0.00187213 0
c p weight 23 0.01563109 0
c p weight -23 0.98436891 0
c p weight 24 0.00402034 0
c p weight -24 0.99597966 0
c p weight 25 0.01609458 0
c p weight -25 0.98390542 0
c p weight 26 0.00371135 0
c p weight -26 0.99628865 0
c p weight 27 0.01885026 0
c p weight -27 0.98114974 0
c p weight 28 0.00041442 0
c p weight -28 0.99958558 0
c p weight 29 0.01234101 0
c p weight -29 0.98765899 0
c p weight 30 0.00823976 0
c p weight -30 0.99176024 0
c p weight 31 0.00608622 0
c p weight -31 0.99391378 0
c p weight 32 0.98347847 0
c p weight -32 0.01652153 0
c p weight 33 0.01254441 0
c p weight -33 0.98745559 0
c p weight 34 0.01630029 0
c p weight -34 0.98369971 0
c p weight 35 0.0003872 0
c p weight -35 0.9996128 0
c p weight 36 0.00907793 0
c p weight -36 0.99092207 0
c p weight 37 0.0168997 0
c p weight -37 0.9831003 0
c p weight 38 0.00413017 0
c p weight -38 0.99586983 0
c p weight 39 0.00273725 0
c p weight -39 0.99726275 0
c p weight 40 0.00086611 0
c p weight -40 0.99913389 0
c p weight 41 0.00480986 0
c p weight -41 0.99519014 0
c p weight 42 0.0025497 0
c p weight -42 0.9974503 0
c p weight 43 0.01228196 0
c p weight -43 0.98771804 0
c p weight 44 0.00390483 0
c p weight -44 0.99609517 0
c p weight 45 0.99463003 0
c p weight -45 0.00536997 0
c p weight 46 0.00802848 0
c p weight -46 0.99197152 0
c p weight 47 0.01800277 0
c p weight -47 0.98199723 0
c p weight 48 0.00468909 0
c p weight -48 0.99531091 0
c p weight 49 0.01463341 0
c p weight -49 0.98536659 0
c p weight 50 0.01216295 0
c p weight -50 0.98783705 0
c p weight 51 0.00174945 0
c p weight -51 0.99825055 0
c p weight 52 0.98042908 0
c p weight -52 0.01957092 0
c p weight 53 0.00926818 0
c p weight -53 0.99073182 0
c p weight 54 0.00581009 0
c p weight -54 0.99418991 0
c p weight 55 0.00193354 0
c p weight -55 0.99806646 0
c p weight 56 0.00350279 0
c p weight -56 0.99649721 0
c p weight 57 0.01688272 0
c p weight -57 0.98311728 0
c p weight 58 0.01208931 0
c p weight -58 0.98791069 0
c p weight 59 0.00570144 0
c p weight -59 0.99429856 0
c p weight 60 0.00660696 0
c p weight -60 0.99339304 0
c p weight 61 0.00919337 0
c p weight -61 0.99080663 0
c p weight 62 0.98314378 0
c p weight -62 0.01685622 0
c p weight 63 0.00157926 0
c p weight -63 0.99842074 0
c p weight 64 0.01467334 0
c p weight -64 0.98532666 0
c p weight 65 0.00632482 0
c p weight -65 0.99367518 0
c p weight 66 0.01262406 0
c p weight -66 0.98737594 0
c p weight 67 0.01683772 0
c p weight -67 0.98316228 0
c p weight 68 0.01512775 0
c p weight -68 0.98487225 0
c p weight 69 0.01171459 0
c p weight -69 0.98828541 0
c p weight 70 0.00542341 0
c p weight -70 0.99457659 0
c p weight 71 0.01294017 0
c p weight -71 0.98705983 0
c p weight 72 0.00372478 0
c p weight -72 0.99627522 0
c p weight 73 0.0054797 0
c p weight -73 0.9945203 0
c p weight 74 0.00310116 0
c p weight -74 0.99689884 0
c p weight 75 0.01905325 0
c p weight -75 0.98094675 0
c p weight 76 0.01843356 0
c p weight -76 0.98156644 0
c p weight 77 0.00982434 0
c p weight -77 0.99017566 0
c p weight 78 0.98729817 0
c p weight -78 0.01270183 0
c p weight 79 0.01064675 0
c p weight -79 0.98935325 0
c p weight 80 0.00258198 0
c p weight -80 0.99741802 0
c p weight 81 0.01522863 0
c p weight -81 0.98477137 0
c p weight 82 0.01786489 0
c p weight -82 0.98213511 0
c p weight 83 0.00588575 0
c p weight -83 0.99411425 0
c p weight 84 0.00635524 0
c p weight -84 0.99364476 0
c p weight 85 0.00252755 0
c p weight -85 0.99747245 0
c p weight 86 0.00895574 0
c p weight -86 0.99104426 0
c p weight 87 0.00578175 0
c p weight -87 0.99421825 0
c p weight 88 0.00968335 0
c p weight -88 0.99031665 0
c p weight 89 0.99290749 0
c p weight -89 0.00709251 0
c p weight 90 0.00101941 0
c p weight -90 0.99898059 0
c p weight 91 0.01537977 0
c p weight -91 0.98462023 0
c p weight 92 0.00592126 0
c p weight -92 0.99407874 0
c p weight 93 0.0102879 0
c p weight -93 0.9897121 0
c p weight 94 0.00140747 0
c p weight -94 0.99859253 0
c p weight 95 0.01928904 0
c p weight -95 0.98071096 0
c p weight 96 0.01721792 0
c p weight -96 0.98278208 0
c p weight 97 0.0153032 0
c p weight -97 0.9846968 0
c p weight 98 0.00158806 0
c p weight -98 0.99841194 0
c p weight 99 0.00678361 0
c p weight -99 0.99321639 0
c p weight 100 0.98088442 0
c p weight -100 0.01911558 0
c p weight 101 0.00229331 0
c p weight -101 0.99770669 0
c p weight 102 0.00886221 0
c p weight -102 0.99113779 0
c p weight 103 0.01271482 0
c p weight -103 0.98728518 0
c p weight 104 0.01952765 0
c p weight -104 0.98047235 0
c p weight 105 0.01021168 0
c p weight -105 0.98978832 0
c p weight 106 0.99470483 0
c p weight -106 0.00529517 0
c p weight 107 0.99847025 0
c p weight -107 0.00152975 0
c p weight 108 0.0075475 0
c p weight -108 0.9924525 0
c p weight 109 0.00103539 0
c p weight -109 0.99896461 0
c p weight 110 0.98144737 0
c p weight -110 0.01855263 0
c p weight 111 0.0040687 0
c p weight -111 0.9959313 0
c p weight 112 0.0141443 0
c p weight -112 0.9858557 0
c p weight 113 0.00660263 0
c p weight -113 0.99339737 0
c p weight 114 0.0026326 0
c p weight -114 0.9973674 0
c p weight 115 0.00691107 0
c p weight -115 0.99308893 0
c p weight 116 0.991518 0
c p weight -116 0.008482 0
c p weight 117 0.99316904 0
c p weight -117 0.00683096 0
c p weight 118 0.9843832 0
c p weight -118 0.0156168 0
c p weight 119 0.98193139 0
c p weight -119 0.01806861 0
c p weight 120 0.99346355 0
c p weight -120 0.00653645 0
c p weight 121 0.01685225 0
c p weight -121 0.98314775 0
c p weight 122 0.01637202 0
c p weight -122 0.98362798 0
c p weight 123 0.00379444 0
c p weight -123 0.99620556 0
c p weight 124 0.00752843 0
c p weight -124 0.99247157 0
c p weight 125 0.01826026 0
c p weight -125 0.98173974 0
c p weight 126 0.00113401 0
c p weight -126 0.99886599 0
c p weight 127 0.00780059 0
c p weight -127 0.99219941 0
c p weight 128 0.01733044 0
c p weight -128 0.98266956 0
c p weight 129 0.01802447 0
c p weight -129 0.98197553 0
c p weight 130 0.99314151 0
c p weight -130 0.00685849 0
